25 40
1 2 1
1 6 4
2 3 5
2 7 1
3 4 3
3 8 4
4 5 3
4 9 2
5 10 3
6 7 2
6 11 3
7 8 4
7 12 3
8 9 1
8 13 3
9 10 3
9 14 2
10 15 2
11 12 5
11 16 5
12 13 3
12 17 2
13 14 3
13 18 3
14 15 2
14 19 3
15 20 2
16 17 3
16 21 1
17 18 1
17 22 3
18 19 2
18 23 5
19 20 3
19 24 2
20 25 1
21 22 4
22 23 3
23 24 5
24 25 1
